PointerNetwork/Ptr_Net_TSPTW/benchmark/n20w20/n20w20.001.txt.solution
1 17 10 20 18 19 11 6 16 2 12 13 7 14 8 3 5 9 21 4 15 
378
